(set-logic QF_SLIA)
(declare-const result String)
(declare-const attack String)
(declare-const prefix RegLan)
(declare-const infix RegLan)
(declare-const postfix RegLan)
(declare-const postfixs String)

(assert (str.in_re attack (re.++ prefix ((_ re.loop 10000 10000) infix) postfix)))
(assert (= prefix 
     (re.++  (str.to_re "\x4a") (re.++  (str.to_re "\x61") (re.++  (str.to_re "\x76") (re.++  (str.to_re "\x61") (re.++  (str.to_re "\x31") (re.++ re.allchar (re.++  (str.to_re "\x31") re.allchar)))))))
))
(assert (= infix 
        (re.inter  (re.++ (re.+ (re.range "0" "9") ) (re.* (re.+  (re.union (re.range "0" "9") (re.union (re.range "\x41" "\x5a") (re.range "\x61" "\x7a"))) ) ))  (re.++ (re.+ (re.range "0" "9") ) (re.++ (re.*  (re.union  (str.to_re "\x5c\x2d")  (str.to_re "\x5f")) ) (re.* (re.+  (re.union (re.range "0" "9") (re.union (re.range "\x41" "\x5a") (re.range "\x61" "\x7a"))) ) ))) )
))
(assert (= postfix 
         (re.inter  (re.++  (str.to_re "\x30") (re.*  (re.union (re.union (str.to_re "\t") (str.to_re "\n") (str.to_re "\r") (str.to_re " ")) (re.inter re.allchar (re.comp (re.union (str.to_re "\t") (str.to_re "\n") (str.to_re "\r") (str.to_re " "))))) )) (re.comp  (re.inter (re.* (re.+  (re.union (re.range "0" "9") (re.union (re.range "\x41" "\x5a") (re.range "\x61" "\x7a"))) ) )  (re.++   (re.union (re.union (str.to_re "\t") (str.to_re "\n") (str.to_re "\r") (str.to_re " ")) (re.inter re.allchar (re.comp (re.union (str.to_re "\t") (str.to_re "\n") (str.to_re "\r") (str.to_re " "))))) (re.*   (re.union (re.union (str.to_re "\t") (str.to_re "\n") (str.to_re "\r") (str.to_re " ")) (re.inter re.allchar (re.comp (re.union (str.to_re "\t") (str.to_re "\n") (str.to_re "\r") (str.to_re " "))))) )))))
))
(assert (str.in_re postfixs postfix))
(assert (>= (str.len postfixs) 1))
(assert (= result (str.++ attack postfixs)))
(check-sat)
(get-model)